
******************************************************************************
This program contains Ipopt, a library for large-scale nonlinear optimization.
 Ipopt is released as open source code under the Eclipse Public License (EPL).
         For more information visit http://projects.coin-or.org/Ipopt

This version of Ipopt was compiled from source code available at
    https://github.com/IDAES/Ipopt as part of the Institute for the Design of
    Advanced Energy Systems Process Systems Engineering Framework (IDAES PSE
    Framework) Copyright (c) 2018-2019. See https://github.com/IDAES/idaes-pse.

This version of Ipopt was compiled using HSL, a collection of Fortran codes
    for large-scale scientific computation.  All technical papers, sales and
    publicity material resulting from use of the HSL codes within IPOPT must
    contain the following acknowledgement:
        HSL, a collection of Fortran codes for large-scale scientific
        computation. See http://www.hsl.rl.ac.uk.
******************************************************************************

This is Ipopt version 3.13.2, running with linear solver ma27.

Number of nonzeros in equality constraint Jacobian...:      958
Number of nonzeros in inequality constraint Jacobian.:        0
Number of nonzeros in Lagrangian Hessian.............:      832

Total number of variables............................:      416
                     variables with only lower bounds:      128
                variables with lower and upper bounds:      224
                     variables with only upper bounds:        0
Total number of equality constraints.................:      415
Total number of inequality constraints...............:        0
        inequality constraints with only lower bounds:        0
   inequality constraints with lower and upper bounds:        0
        inequality constraints with only upper bounds:        0

iter    objective    inf_pr   inf_du lg(mu)  ||d||  lg(rg) alpha_du alpha_pr  ls
   0  0.0000000e+00 2.76e-01 6.66e-16  -1.0 0.00e+00    -  0.00e+00 0.00e+00   0
   1  3.8925473e-02 2.39e-01 3.90e+03  -1.0 1.16e+05    -  3.06e-01 1.27e-01h  2
   2  4.4205270e-01 1.48e-01 2.43e+03  -1.0 9.83e+04    -  6.89e-01 3.41e-01h  1
   3  4.5485698e-01 1.46e-01 2.40e+03  -1.0 8.44e+04    -  8.75e-01 1.08e-02h  1
   4  5.7876672e+00 1.15e-02 2.25e+03  -1.0 1.32e+05    -  8.61e-01 9.90e-01h  1
   5  6.6411535e+00 2.02e-04 2.59e+01  -1.0 1.39e+04    -  9.77e-01 9.90e-01h  1
   6  6.6645641e+00 2.11e-06 1.47e+00  -1.0 4.59e+02    -  9.90e-01 9.90e-01h  1
   7  6.8500356e+00 4.82e-06 1.43e+03  -1.0 4.12e+03    -  9.90e-01 9.90e-01H  1
   8  6.6553431e+00 6.26e-05 1.49e+07  -2.5 6.16e+03    -  9.97e-01 6.97e-01f  1
   9  6.6583302e+00 2.69e-07 5.06e+05  -2.5 7.29e+01    -  1.00e+00 9.97e-01h  1
iter    objective    inf_pr   inf_du lg(mu)  ||d||  lg(rg) alpha_du alpha_pr  ls
  10  6.6579487e+00 9.36e-10 1.64e+08  -2.5 8.52e+00    -  1.00e+00 9.97e-01h  1
In iteration 10, 32 Slacks too small, adjusting variable bounds
  11  6.6579474e+00 1.70e-11 5.80e+10  -2.5 2.96e-02    -  1.00e+00 9.97e-01h  1
  12  6.6579474e+00 4.92e-12 1.53e+13  -2.5 8.38e-05    -  1.00e+00 2.50e-01h  3
  13  6.6579474e+00 7.22e-12 1.46e-03  -2.5 6.29e-05    -  1.00e+00 1.00e+00h  1
  14  6.6579361e+00 6.73e-12 5.80e+10  -9.0 6.54e+01    -  1.00e+00 3.84e-03f  9
  15  6.6579137e+00 1.06e-11 5.76e+10  -9.0 6.40e+01    -  1.00e+00 7.81e-03f  8
  16  6.6579135e+00 4.19e-12 5.75e+10  -9.0 6.35e+01    -  1.00e+00 6.10e-05f 15
  17  6.6579024e+00 7.45e-12 5.73e+10  -9.0 6.35e+01    -  1.00e+00 3.91e-03f  9
  18  6.6578969e+00 4.98e-12 5.72e+10  -9.0 6.32e+01    -  1.00e+00 1.95e-03f 10
  19  6.6550688e+00 1.35e-08 1.72e-03  -9.0 6.31e+01    -  1.00e+00 1.00e+00f  1
iter    objective    inf_pr   inf_du lg(mu)  ||d||  lg(rg) alpha_du alpha_pr  ls
  20  6.6550688e+00 3.40e-11 2.18e-11  -9.0 2.47e-03    -  1.00e+00 1.00e+00h  1

Number of Iterations....: 20

                                   (scaled)                 (unscaled)
Objective...............:   6.6550688265455156e+00    6.6550688265455156e+00
Dual infeasibility......:   2.1827872842550278e-11    2.1827872842550278e-11
Constraint violation....:   3.4047875629994451e-11    3.4047875629994451e-11
Complementarity.........:   9.0909090909091851e-10    9.0909090909091851e-10
Overall NLP error.......:   8.7431781581801519e-11    9.0909090909091851e-10


Number of objective function evaluations             = 88
Number of objective gradient evaluations             = 21
Number of equality constraint evaluations            = 88
Number of inequality constraint evaluations          = 0
Number of equality constraint Jacobian evaluations   = 21
Number of inequality constraint Jacobian evaluations = 0
Number of Lagrangian Hessian evaluations             = 20
Total CPU secs in IPOPT (w/o function evaluations)   =      0.045
Total CPU secs in NLP function evaluations           =      0.812

EXIT: Optimal Solution Found.
